87
Time limit set to 60 seconds
Running CP solver
/home/omastto1/General-Optimization-Solver/src/solvers/mmrcpsp.py:42(stream:108:6): Warning: Cumulative expression 'pulse': height is zero, expression is zero everywhere.
                                                                                               VarCumulAtom_149 = pulse(task_0_mode_0, 0)
/home/omastto1/General-Optimization-Solver/src/solvers/mmrcpsp.py:42(stream:108:1254): Warning: Cumulative expression 'pulse': height is zero, expression is zero everywhere.
                                                                                                  VarCumulAtom_198 = pulse(task_17_mode_0, 0)
/home/omastto1/General-Optimization-Solver/src/solvers/mmrcpsp.py:42(stream:109:6): Warning: Cumulative expression 'pulse': height is zero, expression is zero everywhere.
                                                                                               VarCumulAtom_202 = pulse(task_0_mode_0, 0)
/home/omastto1/General-Optimization-Solver/src/solvers/mmrcpsp.py:42(stream:109:1253): Warning: Cumulative expression 'pulse': height is zero, expression is zero everywhere.
                                                                                                  VarCumulAtom_251 = pulse(task_17_mode_0, 0)
 ! --------------------------------------------------- CP Optimizer 20.1.0.0 --
 ! Minimization problem - 69 variables, 51 constraints
 ! TimeLimit            = 60
 ! Workers              = 14
 ! LogVerbosity         = Terse
 ! Initial process time : 0.00s (0.00s extraction + 0.00s propagation)
 !  . Log search space  : 155.8 (before), 155.8 (after)
 !  . Memory usage      : 754.6 kB (before), 754.6 kB (after)
 ! Using parallel search with 14 workers.
 ! ----------------------------------------------------------------------------
 !          Best Branches  Non-fixed    W       Branch decision
                        0         69                 -
 + New bound is 28
 ! Using iterative diving.
 ! Using temporal relaxation.
 *            38       46  0.30s        1      (gap is 26.32%)
 *            37      104  0.30s        1      (gap is 24.32%)
 *            36      144  0.30s        1      (gap is 22.22%)
 *            35      262  0.30s        1      (gap is 20.00%)
 *            34      316  0.30s        1      (gap is 17.65%)
 *            33      352  0.30s        1      (gap is 15.15%)
 *            32      378  0.30s        1      (gap is 12.50%)
 *            31      392  0.30s        1      (gap is 9.68%)
 *            29      424  0.30s        1      (gap is 3.45%)
 *            28      517  0.30s        1      (gap is 0.00%)
 ! ----------------------------------------------------------------------------
 ! Search completed, 10 solutions found.
 ! Best objective         : 28 (optimal - effective tol. is 0)
 ! Best bound             : 28
 ! ----------------------------------------------------------------------------
 ! Number of branches     : 61509
 ! Number of fails        : 2012
 ! Total memory usage     : 9.7 MB (9.6 MB CP Optimizer + 0.1 MB Concert)
 ! Time spent in solve    : 0.34s (0.34s engine + 0.00s extraction)
 ! Search speed (br. / s) : 186390.9
 ! ----------------------------------------------------------------------------
task_0: (start=0, end=0, size=0, length=0)
Task 0 is scheduled in mode 0 from 0 to 0
task_1: (start=0, end=3, size=3, length=3)
Task 1 is scheduled in mode 1 from 0 to 3
task_2: (start=0, end=5, size=5, length=5)
Task 2 is scheduled in mode 0 from 0 to 5
task_3: (start=0, end=2, size=2, length=2)
Task 3 is scheduled in mode 0 from 0 to 2
task_4: (start=3, end=13, size=10, length=10)
Task 4 is scheduled in mode 2 from 3 to 13
task_5: (start=5, end=11, size=6, length=6)
Task 5 is scheduled in mode 1 from 5 to 11
task_6: (start=10, end=18, size=8, length=8)
Task 6 is scheduled in mode 1 from 10 to 18
task_7: (start=5, end=14, size=9, length=9)
Task 7 is scheduled in mode 2 from 5 to 14
task_8: (start=12, end=20, size=8, length=8)
Task 8 is scheduled in mode 0 from 12 to 20
task_9: (start=14, end=15, size=1, length=1)
Task 9 is scheduled in mode 0 from 14 to 15
task_10: (start=15, end=16, size=1, length=1)
Task 10 is scheduled in mode 0 from 15 to 16
task_11: (start=3, end=10, size=7, length=7)
Task 11 is scheduled in mode 1 from 3 to 10
task_12: (start=20, end=26, size=6, length=6)
Task 12 is scheduled in mode 0 from 20 to 26
task_13: (start=15, end=18, size=3, length=3)
Task 13 is scheduled in mode 1 from 15 to 18
task_14: (start=2, end=12, size=10, length=10)
Task 14 is scheduled in mode 1 from 2 to 12
task_15: (start=26, end=28, size=2, length=2)
Task 15 is scheduled in mode 0 from 26 to 28
task_16: (start=18, end=28, size=10, length=10)
Task 16 is scheduled in mode 1 from 18 to 28
task_17: (start=28, end=28, size=0, length=0)
Task 17 is scheduled in mode 0 from 28 to 28
Optimal solution found
Objective value: 28
Solution is optimal.
